% Instância i12b cortada em 10 jobs

% parâmetros
jobs = 10;
tasks = 2;

% matriz de durações das tasks
d = [|  6,  1     % job 1
     |  5,  2     % job 2
    |  4,  3     % job 3
    |  3,  4     % job 4
    |  2,  5     % job 5
    |  1,  6     % job 6
    |  1,  6     % job 7
    |  2,  5     % job 8
    |  3,  4     % job 9
    |  4,  3 |]; % job 10
